p cnf 960 2464
51 -694 -695 0
-51 694 0
-51 695 0
52 -51 -3 0
-52 51 0
-52 3 0
53 -696 -697 0
-53 696 0
-53 697 0
54 -53 -698 0
-54 53 0
-54 698 0
55 -699 -700 0
-55 699 0
-55 700 0
56 -701 -7 0
-56 701 0
-56 7 0
57 -56 -9 0
-57 56 0
-57 9 0
58 -702 -55 0
-58 702 0
-58 55 0
59 -703 -704 0
-59 703 0
-59 704 0
60 -59 -12 0
-60 59 0
-60 12 0
61 -705 -58 0
-61 705 0
-61 58 0
62 -13 -697 0
-62 13 0
-62 697 0
63 -62 -14 0
-63 62 0
-63 14 0
64 -706 -61 0
-64 706 0
-64 61 0
65 -15 -9 0
-65 15 0
-65 9 0
66 -65 -707 0
-66 65 0
-66 707 0
67 -708 -64 0
-67 708 0
-67 64 0
68 -18 -17 0
-68 18 0
-68 17 0
69 -68 -709 0
-69 68 0
-69 709 0
70 -710 -67 0
-70 710 0
-70 67 0
71 -17 -704 0
-71 17 0
-71 704 0
72 -71 -711 0
-72 71 0
-72 711 0
73 -712 -70 0
-73 712 0
-73 70 0
74 -21 -20 0
-74 21 0
-74 20 0
75 -74 -713 0
-75 74 0
-75 713 0
76 -714 -73 0
-76 714 0
-76 73 0
77 -715 -716 0
-77 715 0
-77 716 0
78 -77 -717 0
-78 77 0
-78 717 0
79 -718 -76 0
-79 718 0
-79 76 0
80 -719 -23 0
-80 719 0
-80 23 0
81 -80 -720 0
-81 80 0
-81 720 0
82 -721 -79 0
-82 721 0
-82 79 0
83 -25 -715 0
-83 25 0
-83 715 0
84 -83 -722 0
-84 83 0
-84 722 0
85 -723 -82 0
-85 723 0
-85 82 0
86 -29 -28 0
-86 29 0
-86 28 0
87 -86 -30 0
-87 86 0
-87 30 0
88 -724 -85 0
-88 724 0
-88 85 0
89 -20 -14 0
-89 20 0
-89 14 0
90 -89 -31 0
-90 89 0
-90 31 0
91 -725 -88 0
-91 725 0
-91 88 0
92 -726 -727 0
-92 726 0
-92 727 0
93 -92 -728 0
-93 92 0
-93 728 0
94 -729 -91 0
-94 729 0
-94 91 0
95 -730 -15 0
-95 730 0
-95 15 0
96 -95 -35 0
-96 95 0
-96 35 0
97 -731 -94 0
-97 731 0
-97 94 0
98 -25 -24 0
-98 25 0
-98 24 0
99 -98 -713 0
-99 98 0
-99 713 0
100 -732 -97 0
-100 732 0
-100 97 0
101 -36 -711 0
-101 36 0
-101 711 0
102 -101 -694 0
-102 101 0
-102 694 0
103 -733 -100 0
-103 733 0
-103 100 0
104 -711 -10 0
-104 711 0
-104 10 0
105 -104 -734 0
-105 104 0
-105 734 0
106 -735 -103 0
-106 735 0
-106 103 0
107 -736 -12 0
-107 736 0
-107 12 0
108 -107 -26 0
-108 107 0
-108 26 0
109 -737 -106 0
-109 737 0
-109 106 0
110 -738 -22 0
-110 738 0
-110 22 0
111 -110 -39 0
-111 110 0
-111 39 0
112 -739 -109 0
-112 739 0
-112 109 0
113 -730 -740 0
-113 730 0
-113 740 0
114 -113 -726 0
-114 113 0
-114 726 0
115 -741 -112 0
-115 741 0
-115 112 0
116 -40 -22 0
-116 40 0
-116 22 0
117 -116 -33 0
-117 116 0
-117 33 0
118 -742 -115 0
-118 742 0
-118 115 0
119 -41 -743 0
-119 41 0
-119 743 0
120 -119 -738 0
-120 119 0
-120 738 0
121 -744 -118 0
-121 744 0
-121 118 0
122 -42 -18 0
-122 42 0
-122 18 0
123 -122 -745 0
-123 122 0
-123 745 0
124 -746 -121 0
-124 746 0
-124 121 0
125 -747 -704 0
-125 747 0
-125 704 0
126 -125 -726 0
-126 125 0
-126 726 0
127 -748 -124 0
-127 748 0
-127 124 0
128 -35 -740 0
-128 35 0
-128 740 0
129 -128 -43 0
-129 128 0
-129 43 0
130 -749 -127 0
-130 749 0
-130 127 0
131 -44 -10 0
-131 44 0
-131 10 0
132 -131 -750 0
-132 131 0
-132 750 0
133 -751 -130 0
-133 751 0
-133 130 0
134 -38 -752 0
-134 38 0
-134 752 0
135 -134 -46 0
-135 134 0
-135 46 0
136 -753 -133 0
-136 753 0
-136 133 0
137 -704 -694 0
-137 704 0
-137 694 0
138 -137 -3 0
-138 137 0
-138 3 0
139 -754 -136 0
-139 754 0
-139 136 0
140 -715 -697 0
-140 715 0
-140 697 0
141 -140 -8 0
-141 140 0
-141 8 0
142 -755 -139 0
-142 755 0
-142 139 0
143 -756 -12 0
-143 756 0
-143 12 0
144 -143 -757 0
-144 143 0
-144 757 0
145 -758 -142 0
-145 758 0
-145 142 0
146 -747 -759 0
-146 747 0
-146 759 0
147 -146 -43 0
-147 146 0
-147 43 0
148 -760 -145 0
-148 760 0
-148 145 0
149 -759 -20 0
-149 759 0
-149 20 0
150 -149 -747 0
-150 149 0
-150 747 0
151 -761 -148 0
-151 761 0
-151 148 0
152 -762 -7 0
-152 762 0
-152 7 0
153 -152 -46 0
-153 152 0
-153 46 0
154 -763 -151 0
-154 763 0
-154 151 0
155 -747 -730 0
-155 747 0
-155 730 0
156 -155 -707 0
-156 155 0
-156 707 0
157 -764 -154 0
-157 764 0
-157 154 0
158 -736 -726 0
-158 736 0
-158 726 0
159 -158 -39 0
-159 158 0
-159 39 0
160 -765 -157 0
-160 765 0
-160 157 0
161 -47 -719 0
-161 47 0
-161 719 0
162 -161 -45 0
-162 161 0
-162 45 0
163 -766 -160 0
-163 766 0
-163 160 0
164 -20 -696 0
-164 20 0
-164 696 0
165 -164 -9 0
-165 164 0
-165 9 0
166 -767 -163 0
-166 767 0
-166 163 0
167 -71 -768 0
-167 71 0
-167 768 0
168 -769 -166 0
-168 769 0
-168 166 0
169 -38 -728 0
-169 38 0
-169 728 0
170 -169 -43 0
-170 169 0
-170 43 0
171 -770 -168 0
-171 770 0
-171 168 0
172 -48 -717 0
-172 48 0
-172 717 0
173 -172 -16 0
-173 172 0
-173 16 0
174 -771 -171 0
-174 771 0
-174 171 0
175 -40 -697 0
-175 40 0
-175 697 0
176 -175 -772 0
-176 175 0
-176 772 0
177 -773 -174 0
-177 773 0
-177 174 0
178 -25 -697 0
-178 25 0
-178 697 0
179 -178 -8 0
-179 178 0
-179 8 0
180 -774 -177 0
-180 774 0
-180 177 0
181 -775 -14 0
-181 775 0
-181 14 0
182 -181 -776 0
-182 181 0
-182 776 0
183 -777 -180 0
-183 777 0
-183 180 0
184 -768 -34 0
-184 768 0
-184 34 0
185 -184 -722 0
-185 184 0
-185 722 0
186 -778 -183 0
-186 778 0
-186 183 0
187 -768 -697 0
-187 768 0
-187 697 0
188 -187 -36 0
-188 187 0
-188 36 0
189 -779 -186 0
-189 779 0
-189 186 0
190 -37 -704 0
-190 37 0
-190 704 0
191 -190 -780 0
-191 190 0
-191 780 0
192 -781 -189 0
-192 781 0
-192 189 0
193 -50 -48 0
-193 50 0
-193 48 0
194 -193 -39 0
-194 193 0
-194 39 0
195 -782 -192 0
-195 782 0
-195 192 0
196 -15 -5 0
-196 15 0
-196 5 0
197 -196 -45 0
-197 196 0
-197 45 0
198 -783 -195 0
-198 783 0
-198 195 0
199 -48 -25 0
-199 48 0
-199 25 0
200 -199 -2 0
-200 199 0
-200 2 0
201 -784 -198 0
-201 784 0
-201 198 0
202 -738 -785 0
-202 738 0
-202 785 0
203 -202 -776 0
-203 202 0
-203 776 0
204 -786 -201 0
-204 786 0
-204 201 0
205 -42 -696 0
-205 42 0
-205 696 0
206 -205 -757 0
-206 205 0
-206 757 0
207 -787 -204 0
-207 787 0
-207 204 0
208 -39 -722 0
-208 39 0
-208 722 0
209 -208 -46 0
-209 208 0
-209 46 0
210 -788 -207 0
-210 788 0
-210 207 0
211 -736 -704 0
-211 736 0
-211 704 0
212 -211 -722 0
-212 211 0
-212 722 0
213 -789 -210 0
-213 789 0
-213 210 0
214 -747 -28 0
-214 747 0
-214 28 0
215 -214 -16 0
-215 214 0
-215 16 0
216 -790 -213 0
-216 790 0
-216 213 0
217 -756 -8 0
-217 756 0
-217 8 0
218 -217 -745 0
-218 217 0
-218 745 0
219 -791 -216 0
-219 791 0
-219 216 0
220 -48 -720 0
-220 48 0
-220 720 0
221 -220 -696 0
-221 220 0
-221 696 0
222 -792 -219 0
-222 792 0
-222 219 0
223 -793 -704 0
-223 793 0
-223 704 0
224 -223 -6 0
-224 223 0
-224 6 0
225 -794 -222 0
-225 794 0
-225 222 0
226 -14 -697 0
-226 14 0
-226 697 0
227 -226 -772 0
-227 226 0
-227 772 0
228 -795 -225 0
-228 795 0
-228 225 0
229 -42 -796 0
-229 42 0
-229 796 0
230 -229 -30 0
-230 229 0
-230 30 0
231 -797 -228 0
-231 797 0
-231 228 0
232 -759 -727 0
-232 759 0
-232 727 0
233 -232 -757 0
-233 232 0
-233 757 0
234 -798 -231 0
-234 798 0
-234 231 0
235 -50 -713 0
-235 50 0
-235 713 0
236 -235 -726 0
-236 235 0
-236 726 0
237 -799 -234 0
-237 799 0
-237 234 0
238 -800 -9 0
-238 800 0
-238 9 0
239 -238 -16 0
-239 238 0
-239 16 0
240 -801 -237 0
-240 801 0
-240 237 0
241 -40 -704 0
-241 40 0
-241 704 0
242 -241 -33 0
-242 241 0
-242 33 0
243 -802 -240 0
-243 802 0
-243 240 0
244 -28 -695 0
-244 28 0
-244 695 0
245 -244 -803 0
-245 244 0
-245 803 0
246 -804 -243 0
-246 804 0
-246 243 0
247 -49 -736 0
-247 49 0
-247 736 0
248 -247 -772 0
-248 247 0
-248 772 0
249 -805 -246 0
-249 805 0
-249 246 0
250 -12 -1 0
-250 12 0
-250 1 0
251 -250 -757 0
-251 250 0
-251 757 0
252 -806 -249 0
-252 806 0
-252 249 0
253 -722 -2 0
-253 722 0
-253 2 0
254 -253 -46 0
-254 253 0
-254 46 0
255 -807 -252 0
-255 807 0
-255 252 0
256 -15 -10 0
-256 15 0
-256 10 0
257 -256 -48 0
-257 256 0
-257 48 0
258 -808 -255 0
-258 808 0
-258 255 0
259 -698 -3 0
-259 698 0
-259 3 0
260 -259 -757 0
-260 259 0
-260 757 0
261 -809 -258 0
-261 809 0
-261 258 0
262 -42 -785 0
-262 42 0
-262 785 0
263 -262 -21 0
-263 262 0
-263 21 0
264 -810 -261 0
-264 810 0
-264 261 0
265 -709 -18 0
-265 709 0
-265 18 0
266 -265 -780 0
-266 265 0
-266 780 0
267 -811 -264 0
-267 811 0
-267 264 0
268 -42 -812 0
-268 42 0
-268 812 0
269 -268 -27 0
-269 268 0
-269 27 0
270 -813 -267 0
-270 813 0
-270 267 0
271 -20 -703 0
-271 20 0
-271 703 0
272 -271 -26 0
-272 271 0
-272 26 0
273 -814 -270 0
-273 814 0
-273 270 0
274 -720 -701 0
-274 720 0
-274 701 0
275 -274 -776 0
-275 274 0
-275 776 0
276 -815 -273 0
-276 815 0
-276 273 0
277 -803 -19 0
-277 803 0
-277 19 0
278 -277 -745 0
-278 277 0
-278 745 0
279 -816 -276 0
-279 816 0
-279 276 0
280 -776 -4 0
-280 776 0
-280 4 0
281 -280 -772 0
-281 280 0
-281 772 0
282 -817 -279 0
-282 817 0
-282 279 0
283 -40 -5 0
-283 40 0
-283 5 0
284 -283 -818 0
-284 283 0
-284 818 0
285 -819 -282 0
-285 819 0
-285 282 0
286 -711 -696 0
-286 711 0
-286 696 0
287 -286 -772 0
-287 286 0
-287 772 0
288 -820 -285 0
-288 820 0
-288 285 0
289 -812 -727 0
-289 812 0
-289 727 0
290 -289 -793 0
-290 289 0
-290 793 0
291 -821 -288 0
-291 821 0
-291 288 0
292 -14 -752 0
-292 14 0
-292 752 0
293 -292 -33 0
-293 292 0
-293 33 0
294 -822 -291 0
-294 822 0
-294 291 0
295 -35 -14 0
-295 35 0
-295 14 0
296 -295 -734 0
-296 295 0
-296 734 0
297 -823 -294 0
-297 823 0
-297 294 0
298 -25 -711 0
-298 25 0
-298 711 0
299 -298 -701 0
-299 298 0
-299 701 0
300 -824 -297 0
-300 824 0
-300 297 0
301 -727 -18 0
-301 727 0
-301 18 0
302 -301 -22 0
-302 301 0
-302 22 0
303 -825 -300 0
-303 825 0
-303 300 0
304 -36 -715 0
-304 36 0
-304 715 0
305 -304 -42 0
-305 304 0
-305 42 0
306 -826 -303 0
-306 826 0
-306 303 0
307 -26 -15 0
-307 26 0
-307 15 0
308 -307 -743 0
-308 307 0
-308 743 0
309 -827 -306 0
-309 827 0
-309 306 0
310 -727 -20 0
-310 727 0
-310 20 0
311 -310 -796 0
-311 310 0
-311 796 0
312 -828 -309 0
-312 828 0
-312 309 0
313 -24 -775 0
-313 24 0
-313 775 0
314 -313 -829 0
-314 313 0
-314 829 0
315 -830 -312 0
-315 830 0
-315 312 0
316 -37 -19 0
-316 37 0
-316 19 0
317 -316 -698 0
-317 316 0
-317 698 0
318 -831 -315 0
-318 831 0
-318 315 0
319 -715 -701 0
-319 715 0
-319 701 0
320 -319 -762 0
-320 319 0
-320 762 0
321 -832 -318 0
-321 832 0
-321 318 0
322 -750 -785 0
-322 750 0
-322 785 0
323 -322 -738 0
-323 322 0
-323 738 0
324 -833 -321 0
-324 833 0
-324 321 0
325 -28 -12 0
-325 28 0
-325 12 0
326 -325 -37 0
-326 325 0
-326 37 0
327 -834 -324 0
-327 834 0
-327 324 0
328 -18 -10 0
-328 18 0
-328 10 0
329 -328 -713 0
-329 328 0
-329 713 0
330 -835 -327 0
-330 835 0
-330 327 0
331 -41 -12 0
-331 41 0
-331 12 0
332 -331 -793 0
-332 331 0
-332 793 0
333 -836 -330 0
-333 836 0
-333 330 0
334 -31 -715 0
-334 31 0
-334 715 0
335 -334 -762 0
-335 334 0
-335 762 0
336 -837 -333 0
-336 837 0
-336 333 0
337 -26 -697 0
-337 26 0
-337 697 0
338 -337 -6 0
-338 337 0
-338 6 0
339 -838 -336 0
-339 838 0
-339 336 0
340 -10 -1 0
-340 10 0
-340 1 0
341 -340 -11 0
-341 340 0
-341 11 0
342 -839 -339 0
-342 839 0
-342 339 0
343 -21 -18 0
-343 21 0
-343 18 0
344 -343 -50 0
-344 343 0
-344 50 0
345 -840 -342 0
-345 840 0
-345 342 0
346 -768 -785 0
-346 768 0
-346 785 0
347 -346 -39 0
-347 346 0
-347 39 0
348 -841 -345 0
-348 841 0
-348 345 0
349 -812 -800 0
-349 812 0
-349 800 0
350 -349 -713 0
-350 349 0
-350 713 0
351 -842 -348 0
-351 842 0
-351 348 0
352 -21 -696 0
-352 21 0
-352 696 0
353 -352 -33 0
-353 352 0
-353 33 0
354 -843 -351 0
-354 843 0
-354 351 0
355 -31 -803 0
-355 31 0
-355 803 0
356 -355 -3 0
-356 355 0
-356 3 0
357 -844 -354 0
-357 844 0
-357 354 0
358 -32 -775 0
-358 32 0
-358 775 0
359 -358 -9 0
-359 358 0
-359 9 0
360 -845 -357 0
-360 845 0
-360 357 0
361 -759 -19 0
-361 759 0
-361 19 0
362 -361 -734 0
-362 361 0
-362 734 0
363 -846 -360 0
-363 846 0
-363 360 0
364 -41 -2 0
-364 41 0
-364 2 0
365 -364 -776 0
-365 364 0
-365 776 0
366 -847 -363 0
-366 847 0
-366 363 0
367 -696 -4 0
-367 696 0
-367 4 0
368 -367 -6 0
-368 367 0
-368 6 0
369 -848 -366 0
-369 848 0
-369 366 0
370 -750 -711 0
-370 750 0
-370 711 0
371 -370 -22 0
-371 370 0
-371 22 0
372 -849 -369 0
-372 849 0
-372 369 0
373 -757 -36 0
-373 757 0
-373 36 0
374 -373 -707 0
-374 373 0
-374 707 0
375 -850 -372 0
-375 850 0
-375 372 0
376 -190 -720 0
-376 190 0
-376 720 0
377 -851 -375 0
-377 851 0
-377 375 0
378 -20 -829 0
-378 20 0
-378 829 0
379 -378 -701 0
-379 378 0
-379 701 0
380 -852 -377 0
-380 852 0
-380 377 0
381 -768 -695 0
-381 768 0
-381 695 0
382 -381 -713 0
-382 381 0
-382 713 0
383 -853 -380 0
-383 853 0
-383 380 0
384 -13 -1 0
-384 13 0
-384 1 0
385 -384 -6 0
-385 384 0
-385 6 0
386 -854 -383 0
-386 854 0
-386 383 0
387 -20 -762 0
-387 20 0
-387 762 0
388 -387 -39 0
-388 387 0
-388 39 0
389 -855 -386 0
-389 855 0
-389 386 0
390 -13 -703 0
-390 13 0
-390 703 0
391 -390 -36 0
-391 390 0
-391 36 0
392 -856 -389 0
-392 856 0
-392 389 0
393 -743 -728 0
-393 743 0
-393 728 0
394 -393 -757 0
-394 393 0
-394 757 0
395 -857 -392 0
-395 857 0
-395 392 0
396 -21 -4 0
-396 21 0
-396 4 0
397 -396 -22 0
-397 396 0
-397 22 0
398 -858 -395 0
-398 858 0
-398 395 0
399 -24 -780 0
-399 24 0
-399 780 0
400 -399 -39 0
-400 399 0
-400 39 0
401 -859 -398 0
-401 859 0
-401 398 0
402 -45 -717 0
-402 45 0
-402 717 0
403 -402 -8 0
-403 402 0
-403 8 0
404 -860 -401 0
-404 860 0
-404 401 0
405 -28 -11 0
-405 28 0
-405 11 0
406 -405 -14 0
-406 405 0
-406 14 0
407 -861 -404 0
-407 861 0
-407 404 0
408 -720 -704 0
-408 720 0
-408 704 0
409 -408 -745 0
-409 408 0
-409 745 0
410 -862 -407 0
-410 862 0
-410 407 0
411 -30 -11 0
-411 30 0
-411 11 0
412 -411 -39 0
-412 411 0
-412 39 0
413 -863 -410 0
-413 863 0
-413 410 0
414 -36 -23 0
-414 36 0
-414 23 0
415 -414 -696 0
-415 414 0
-415 696 0
416 -864 -413 0
-416 864 0
-416 413 0
417 -13 -695 0
-417 13 0
-417 695 0
418 -417 -780 0
-418 417 0
-418 780 0
419 -865 -416 0
-419 865 0
-419 416 0
420 -775 -704 0
-420 775 0
-420 704 0
421 -420 -14 0
-421 420 0
-421 14 0
422 -866 -419 0
-422 866 0
-422 419 0
423 -35 -704 0
-423 35 0
-423 704 0
424 -423 -5 0
-424 423 0
-424 5 0
425 -867 -422 0
-425 867 0
-425 422 0
426 -722 -709 0
-426 722 0
-426 709 0
427 -426 -38 0
-427 426 0
-427 38 0
428 -868 -425 0
-428 868 0
-428 425 0
429 -32 -23 0
-429 32 0
-429 23 0
430 -429 -785 0
-430 429 0
-430 785 0
431 -869 -428 0
-431 869 0
-431 428 0
432 -870 -727 0
-432 870 0
-432 727 0
433 -432 -707 0
-433 432 0
-433 707 0
434 -871 -431 0
-434 871 0
-434 431 0
435 -872 -730 0
-435 872 0
-435 730 0
436 -435 -776 0
-436 435 0
-436 776 0
437 -873 -434 0
-437 873 0
-437 434 0
438 -44 -4 0
-438 44 0
-438 4 0
439 -438 -762 0
-439 438 0
-439 762 0
440 -874 -437 0
-440 874 0
-440 437 0
441 -872 -42 0
-441 872 0
-441 42 0
442 -441 -762 0
-442 441 0
-442 762 0
443 -875 -440 0
-443 875 0
-443 440 0
444 -41 -3 0
-444 41 0
-444 3 0
445 -444 -707 0
-445 444 0
-445 707 0
446 -876 -443 0
-446 876 0
-446 443 0
447 -27 -26 0
-447 27 0
-447 26 0
448 -447 -38 0
-448 447 0
-448 38 0
449 -877 -446 0
-449 877 0
-449 446 0
450 -35 -800 0
-450 35 0
-450 800 0
451 -450 -8 0
-451 450 0
-451 8 0
452 -878 -449 0
-452 878 0
-452 449 0
453 -796 -1 0
-453 796 0
-453 1 0
454 -453 -722 0
-454 453 0
-454 722 0
455 -879 -452 0
-455 879 0
-455 452 0
456 -47 -31 0
-456 47 0
-456 31 0
457 -456 -30 0
-457 456 0
-457 30 0
458 -880 -455 0
-458 880 0
-458 455 0
459 -45 -722 0
-459 45 0
-459 722 0
460 -459 -743 0
-460 459 0
-460 743 0
461 -881 -458 0
-461 881 0
-461 458 0
462 -750 -720 0
-462 750 0
-462 720 0
463 -462 -694 0
-463 462 0
-463 694 0
464 -882 -461 0
-464 882 0
-464 461 0
465 -24 -21 0
-465 24 0
-465 21 0
466 -465 -16 0
-466 465 0
-466 16 0
467 -883 -464 0
-467 883 0
-467 464 0
468 -41 -40 0
-468 41 0
-468 40 0
469 -468 -16 0
-469 468 0
-469 16 0
470 -884 -467 0
-470 884 0
-470 467 0
471 -15 -11 0
-471 15 0
-471 11 0
472 -471 -796 0
-472 471 0
-472 796 0
473 -885 -470 0
-473 885 0
-473 470 0
474 -44 -704 0
-474 44 0
-474 704 0
475 -474 -694 0
-475 474 0
-475 694 0
476 -886 -473 0
-476 886 0
-476 473 0
477 -45 -762 0
-477 45 0
-477 762 0
478 -477 -776 0
-478 477 0
-478 776 0
479 -887 -476 0
-479 887 0
-479 476 0
480 -812 -24 0
-480 812 0
-480 24 0
481 -480 -713 0
-481 480 0
-481 713 0
482 -888 -479 0
-482 888 0
-482 479 0
483 -32 -703 0
-483 32 0
-483 703 0
484 -483 -696 0
-484 483 0
-484 696 0
485 -889 -482 0
-485 889 0
-485 482 0
486 -812 -704 0
-486 812 0
-486 704 0
487 -486 -14 0
-487 486 0
-487 14 0
488 -890 -485 0
-488 890 0
-488 485 0
489 -872 -22 0
-489 872 0
-489 22 0
490 -489 -745 0
-490 489 0
-490 745 0
491 -891 -488 0
-491 891 0
-491 488 0
492 -715 -728 0
-492 715 0
-492 728 0
493 -492 -49 0
-493 492 0
-493 49 0
494 -892 -491 0
-494 892 0
-494 491 0
495 -48 -812 0
-495 48 0
-495 812 0
496 -495 -738 0
-496 495 0
-496 738 0
497 -893 -494 0
-497 893 0
-497 494 0
498 -50 -717 0
-498 50 0
-498 717 0
499 -498 -726 0
-499 498 0
-499 726 0
500 -894 -497 0
-500 894 0
-500 497 0
501 -793 -6 0
-501 793 0
-501 6 0
502 -501 -870 0
-502 501 0
-502 870 0
503 -895 -500 0
-503 895 0
-503 500 0
504 -745 -829 0
-504 745 0
-504 829 0
505 -504 -38 0
-505 504 0
-505 38 0
506 -896 -503 0
-506 896 0
-506 503 0
507 -716 -6 0
-507 716 0
-507 6 0
508 -507 -9 0
-508 507 0
-508 9 0
509 -897 -506 0
-509 897 0
-509 506 0
510 -812 -18 0
-510 812 0
-510 18 0
511 -510 -745 0
-511 510 0
-511 745 0
512 -898 -509 0
-512 898 0
-512 509 0
513 -780 -701 0
-513 780 0
-513 701 0
514 -513 -3 0
-514 513 0
-514 3 0
515 -899 -512 0
-515 899 0
-515 512 0
516 -14 -695 0
-516 14 0
-516 695 0
517 -516 -750 0
-517 516 0
-517 750 0
518 -900 -515 0
-518 900 0
-518 515 0
519 -2 -1 0
-519 2 0
-519 1 0
520 -519 -728 0
-520 519 0
-520 728 0
521 -901 -518 0
-521 901 0
-521 518 0
522 -29 -23 0
-522 29 0
-522 23 0
523 -522 -43 0
-523 522 0
-523 43 0
524 -902 -521 0
-524 902 0
-524 521 0
525 -800 -697 0
-525 800 0
-525 697 0
526 -525 -37 0
-526 525 0
-526 37 0
527 -903 -524 0
-527 903 0
-527 524 0
528 -756 -752 0
-528 756 0
-528 752 0
529 -528 -726 0
-529 528 0
-529 726 0
530 -904 -527 0
-530 904 0
-530 527 0
531 -768 -694 0
-531 768 0
-531 694 0
532 -531 -16 0
-532 531 0
-532 16 0
533 -905 -530 0
-533 905 0
-533 530 0
534 -747 -716 0
-534 747 0
-534 716 0
535 -534 -29 0
-535 534 0
-535 29 0
536 -906 -533 0
-536 906 0
-536 533 0
537 -756 -736 0
-537 756 0
-537 736 0
538 -537 -829 0
-538 537 0
-538 829 0
539 -907 -536 0
-539 907 0
-539 536 0
540 -44 -696 0
-540 44 0
-540 696 0
541 -540 -694 0
-541 540 0
-541 694 0
542 -908 -539 0
-542 908 0
-542 539 0
543 -45 -695 0
-543 45 0
-543 695 0
544 -543 -743 0
-544 543 0
-544 743 0
545 -909 -542 0
-545 909 0
-545 542 0
546 -736 -18 0
-546 736 0
-546 18 0
547 -546 -772 0
-547 546 0
-547 772 0
548 -910 -545 0
-548 910 0
-548 545 0
549 -40 -1 0
-549 40 0
-549 1 0
550 -549 -41 0
-550 549 0
-550 41 0
551 -911 -548 0
-551 911 0
-551 548 0
552 -716 -752 0
-552 716 0
-552 752 0
553 -552 -4 0
-553 552 0
-553 4 0
554 -912 -551 0
-554 912 0
-554 551 0
555 -23 -703 0
-555 23 0
-555 703 0
556 -555 -776 0
-556 555 0
-556 776 0
557 -913 -554 0
-557 913 0
-557 554 0
558 -41 -829 0
-558 41 0
-558 829 0
559 -558 -870 0
-559 558 0
-559 870 0
560 -914 -557 0
-560 914 0
-560 557 0
561 -44 -42 0
-561 44 0
-561 42 0
562 -561 -713 0
-562 561 0
-562 713 0
563 -915 -560 0
-563 915 0
-563 560 0
564 -370 -49 0
-564 370 0
-564 49 0
565 -916 -563 0
-565 916 0
-565 563 0
566 -41 -740 0
-566 41 0
-566 740 0
567 -566 -780 0
-567 566 0
-567 780 0
568 -917 -565 0
-568 917 0
-568 565 0
569 -727 -1 0
-569 727 0
-569 1 0
570 -569 -7 0
-570 569 0
-570 7 0
571 -918 -568 0
-571 918 0
-571 568 0
572 -42 -5 0
-572 42 0
-572 5 0
573 -572 -44 0
-573 572 0
-573 44 0
574 -919 -571 0
-574 919 0
-574 571 0
575 -740 -696 0
-575 740 0
-575 696 0
576 -575 -701 0
-576 575 0
-576 701 0
577 -920 -574 0
-577 920 0
-577 574 0
578 -47 -745 0
-578 47 0
-578 745 0
579 -578 -49 0
-579 578 0
-579 49 0
580 -921 -577 0
-580 921 0
-580 577 0
581 -709 -829 0
-581 709 0
-581 829 0
582 -581 -870 0
-582 581 0
-582 870 0
583 -922 -580 0
-583 922 0
-583 580 0
584 -719 -18 0
-584 719 0
-584 18 0
585 -584 -722 0
-585 584 0
-585 722 0
586 -923 -583 0
-586 923 0
-586 583 0
587 -812 -11 0
-587 812 0
-587 11 0
588 -587 -726 0
-588 587 0
-588 726 0
589 -924 -586 0
-589 924 0
-589 586 0
590 -14 -701 0
-590 14 0
-590 701 0
591 -590 -2 0
-591 590 0
-591 2 0
592 -925 -589 0
-592 925 0
-592 589 0
593 -709 -13 0
-593 709 0
-593 13 0
594 -593 -43 0
-594 593 0
-594 43 0
595 -926 -592 0
-595 926 0
-595 592 0
596 -47 -703 0
-596 47 0
-596 703 0
597 -596 -713 0
-597 596 0
-597 713 0
598 -927 -595 0
-598 927 0
-598 595 0
599 -35 -26 0
-599 35 0
-599 26 0
600 -599 -49 0
-600 599 0
-600 49 0
601 -928 -598 0
-601 928 0
-601 598 0
602 -800 -1 0
-602 800 0
-602 1 0
603 -602 -2 0
-603 602 0
-603 2 0
604 -929 -601 0
-604 929 0
-604 601 0
605 -803 -1 0
-605 803 0
-605 1 0
606 -605 -713 0
-606 605 0
-606 713 0
607 -930 -604 0
-607 930 0
-607 604 0
608 -747 -12 0
-608 747 0
-608 12 0
609 -608 -16 0
-609 608 0
-609 16 0
610 -931 -607 0
-610 931 0
-610 607 0
611 -716 -775 0
-611 716 0
-611 775 0
612 -611 -16 0
-612 611 0
-612 16 0
613 -932 -610 0
-613 932 0
-613 610 0
614 -734 -709 0
-614 734 0
-614 709 0
615 -614 -46 0
-615 614 0
-615 46 0
616 -933 -613 0
-616 933 0
-616 613 0
617 -17 -5 0
-617 17 0
-617 5 0
618 -617 -49 0
-618 617 0
-618 49 0
619 -934 -616 0
-619 934 0
-619 616 0
620 -727 -717 0
-620 727 0
-620 717 0
621 -620 -30 0
-621 620 0
-621 30 0
622 -935 -619 0
-622 935 0
-622 619 0
623 -803 -13 0
-623 803 0
-623 13 0
624 -623 -772 0
-624 623 0
-624 772 0
625 -936 -622 0
-625 936 0
-625 622 0
626 -9 -1 0
-626 9 0
-626 1 0
627 -626 -870 0
-627 626 0
-627 870 0
628 -937 -625 0
-628 937 0
-628 625 0
629 -759 -23 0
-629 759 0
-629 23 0
630 -629 -694 0
-630 629 0
-630 694 0
631 -938 -628 0
-631 938 0
-631 628 0
632 -25 -20 0
-632 25 0
-632 20 0
633 -632 -49 0
-633 632 0
-633 49 0
634 -939 -631 0
-634 939 0
-634 631 0
635 -736 -785 0
-635 736 0
-635 785 0
636 -635 -698 0
-636 635 0
-636 698 0
637 -940 -634 0
-637 940 0
-637 634 0
638 -40 -730 0
-638 40 0
-638 730 0
639 -638 -5 0
-639 638 0
-639 5 0
640 -941 -637 0
-640 941 0
-640 637 0
641 -715 -829 0
-641 715 0
-641 829 0
642 -641 -803 0
-642 641 0
-642 803 0
643 -942 -640 0
-643 942 0
-643 640 0
644 -504 -707 0
-644 504 0
-644 707 0
645 -943 -643 0
-645 943 0
-645 643 0
646 -717 -697 0
-646 717 0
-646 697 0
647 -646 -46 0
-647 646 0
-647 46 0
648 -944 -645 0
-648 944 0
-648 645 0
649 -48 -745 0
-649 48 0
-649 745 0
650 -649 -707 0
-650 649 0
-650 707 0
651 -945 -648 0
-651 945 0
-651 648 0
652 -23 -704 0
-652 23 0
-652 704 0
653 -652 -4 0
-653 652 0
-653 4 0
654 -946 -651 0
-654 946 0
-654 651 0
655 -40 -35 0
-655 40 0
-655 35 0
656 -655 -19 0
-656 655 0
-656 19 0
657 -947 -654 0
-657 947 0
-657 654 0
658 -48 -796 0
-658 48 0
-658 796 0
659 -658 -30 0
-659 658 0
-659 30 0
660 -948 -657 0
-660 948 0
-660 657 0
661 -48 -726 0
-661 48 0
-661 726 0
662 -661 -728 0
-662 661 0
-662 728 0
663 -949 -660 0
-663 949 0
-663 660 0
664 -30 -10 0
-664 30 0
-664 10 0
665 -664 -757 0
-665 664 0
-665 757 0
666 -950 -663 0
-666 950 0
-666 663 0
667 -872 -29 0
-667 872 0
-667 29 0
668 -667 -772 0
-668 667 0
-668 772 0
669 -951 -666 0
-669 951 0
-669 666 0
670 -28 -25 0
-670 28 0
-670 25 0
671 -670 -35 0
-671 670 0
-671 35 0
672 -952 -669 0
-672 952 0
-672 669 0
673 -36 -26 0
-673 36 0
-673 26 0
674 -673 -698 0
-674 673 0
-674 698 0
675 -953 -672 0
-675 953 0
-675 672 0
676 -101 -728 0
-676 101 0
-676 728 0
677 -954 -675 0
-677 954 0
-677 675 0
678 -27 -13 0
-678 27 0
-678 13 0
679 -678 -31 0
-679 678 0
-679 31 0
680 -955 -677 0
-680 955 0
-680 677 0
681 -711 -17 0
-681 711 0
-681 17 0
682 -681 -26 0
-682 681 0
-682 26 0
683 -956 -680 0
-683 956 0
-683 680 0
684 -750 -803 0
-684 750 0
-684 803 0
685 -684 -16 0
-685 684 0
-685 16 0
686 -957 -683 0
-686 957 0
-686 683 0
687 -602 -772 0
-687 602 0
-687 772 0
688 -958 -686 0
-688 958 0
-688 686 0
689 -756 -803 0
-689 756 0
-689 803 0
690 -689 -728 0
-690 689 0
-690 728 0
691 -959 -688 0
-691 959 0
-691 688 0
692 -74 -738 0
-692 74 0
-692 738 0
693 -960 -691 0
-693 960 0
-693 691 0
-694 -2 0
694 2 0
-695 -1 0
695 1 0
-696 -5 0
696 5 0
-697 -4 0
697 4 0
-698 -6 0
698 6 0
-699 -54 0
699 54 0
-700 -52 0
700 52 0
-701 -8 0
701 8 0
-702 -57 0
702 57 0
-703 -11 0
703 11 0
-704 -10 0
704 10 0
-705 -60 0
705 60 0
-706 -63 0
706 63 0
-707 -16 0
707 16 0
-708 -66 0
708 66 0
-709 -19 0
709 19 0
-710 -69 0
710 69 0
-711 -18 0
711 18 0
-712 -72 0
712 72 0
-713 -22 0
713 22 0
-714 -75 0
714 75 0
-715 -24 0
715 24 0
-716 -23 0
716 23 0
-717 -12 0
717 12 0
-718 -78 0
718 78 0
-719 -25 0
719 25 0
-720 -26 0
720 26 0
-721 -81 0
721 81 0
-722 -27 0
722 27 0
-723 -84 0
723 84 0
-724 -87 0
724 87 0
-725 -90 0
725 90 0
-726 -33 0
726 33 0
-727 -32 0
727 32 0
-728 -3 0
728 3 0
-729 -93 0
729 93 0
-730 -34 0
730 34 0
-731 -96 0
731 96 0
-732 -99 0
732 99 0
-733 -102 0
733 102 0
-734 -30 0
734 30 0
-735 -105 0
735 105 0
-736 -37 0
736 37 0
-737 -108 0
737 108 0
-738 -38 0
738 38 0
-739 -111 0
739 111 0
-740 -15 0
740 15 0
-741 -114 0
741 114 0
-742 -117 0
742 117 0
-743 -29 0
743 29 0
-744 -120 0
744 120 0
-745 -31 0
745 31 0
-746 -123 0
746 123 0
-747 -42 0
747 42 0
-748 -126 0
748 126 0
-749 -129 0
749 129 0
-750 -45 0
750 45 0
-751 -132 0
751 132 0
-752 -13 0
752 13 0
-753 -135 0
753 135 0
-754 -138 0
754 138 0
-755 -141 0
755 141 0
-756 -41 0
756 41 0
-757 -39 0
757 39 0
-758 -144 0
758 144 0
-759 -35 0
759 35 0
-760 -147 0
760 147 0
-761 -150 0
761 150 0
-762 -9 0
762 9 0
-763 -153 0
763 153 0
-764 -156 0
764 156 0
-765 -159 0
765 159 0
-766 -162 0
766 162 0
-767 -165 0
767 165 0
-768 -47 0
768 47 0
-769 -167 0
769 167 0
-770 -170 0
770 170 0
-771 -173 0
771 173 0
-772 -46 0
772 46 0
-773 -176 0
773 176 0
-774 -179 0
774 179 0
-775 -17 0
775 17 0
-776 -49 0
776 49 0
-777 -182 0
777 182 0
-778 -185 0
778 185 0
-779 -188 0
779 188 0
-780 -14 0
780 14 0
-781 -191 0
781 191 0
-782 -194 0
782 194 0
-783 -197 0
783 197 0
-784 -200 0
784 200 0
-785 -28 0
785 28 0
-786 -203 0
786 203 0
-787 -206 0
787 206 0
-788 -209 0
788 209 0
-789 -212 0
789 212 0
-790 -215 0
790 215 0
-791 -218 0
791 218 0
-792 -221 0
792 221 0
-793 -44 0
793 44 0
-794 -224 0
794 224 0
-795 -227 0
795 227 0
-796 -36 0
796 36 0
-797 -230 0
797 230 0
-798 -233 0
798 233 0
-799 -236 0
799 236 0
-800 -20 0
800 20 0
-801 -239 0
801 239 0
-802 -242 0
802 242 0
-803 -21 0
803 21 0
-804 -245 0
804 245 0
-805 -248 0
805 248 0
-806 -251 0
806 251 0
-807 -254 0
807 254 0
-808 -257 0
808 257 0
-809 -260 0
809 260 0
-810 -263 0
810 263 0
-811 -266 0
811 266 0
-812 -40 0
812 40 0
-813 -269 0
813 269 0
-814 -272 0
814 272 0
-815 -275 0
815 275 0
-816 -278 0
816 278 0
-817 -281 0
817 281 0
-818 -50 0
818 50 0
-819 -284 0
819 284 0
-820 -287 0
820 287 0
-821 -290 0
821 290 0
-822 -293 0
822 293 0
-823 -296 0
823 296 0
-824 -299 0
824 299 0
-825 -302 0
825 302 0
-826 -305 0
826 305 0
-827 -308 0
827 308 0
-828 -311 0
828 311 0
-829 -7 0
829 7 0
-830 -314 0
830 314 0
-831 -317 0
831 317 0
-832 -320 0
832 320 0
-833 -323 0
833 323 0
-834 -326 0
834 326 0
-835 -329 0
835 329 0
-836 -332 0
836 332 0
-837 -335 0
837 335 0
-838 -338 0
838 338 0
-839 -341 0
839 341 0
-840 -344 0
840 344 0
-841 -347 0
841 347 0
-842 -350 0
842 350 0
-843 -353 0
843 353 0
-844 -356 0
844 356 0
-845 -359 0
845 359 0
-846 -362 0
846 362 0
-847 -365 0
847 365 0
-848 -368 0
848 368 0
-849 -371 0
849 371 0
-850 -374 0
850 374 0
-851 -376 0
851 376 0
-852 -379 0
852 379 0
-853 -382 0
853 382 0
-854 -385 0
854 385 0
-855 -388 0
855 388 0
-856 -391 0
856 391 0
-857 -394 0
857 394 0
-858 -397 0
858 397 0
-859 -400 0
859 400 0
-860 -403 0
860 403 0
-861 -406 0
861 406 0
-862 -409 0
862 409 0
-863 -412 0
863 412 0
-864 -415 0
864 415 0
-865 -418 0
865 418 0
-866 -421 0
866 421 0
-867 -424 0
867 424 0
-868 -427 0
868 427 0
-869 -430 0
869 430 0
-870 -43 0
870 43 0
-871 -433 0
871 433 0
-872 -48 0
872 48 0
-873 -436 0
873 436 0
-874 -439 0
874 439 0
-875 -442 0
875 442 0
-876 -445 0
876 445 0
-877 -448 0
877 448 0
-878 -451 0
878 451 0
-879 -454 0
879 454 0
-880 -457 0
880 457 0
-881 -460 0
881 460 0
-882 -463 0
882 463 0
-883 -466 0
883 466 0
-884 -469 0
884 469 0
-885 -472 0
885 472 0
-886 -475 0
886 475 0
-887 -478 0
887 478 0
-888 -481 0
888 481 0
-889 -484 0
889 484 0
-890 -487 0
890 487 0
-891 -490 0
891 490 0
-892 -493 0
892 493 0
-893 -496 0
893 496 0
-894 -499 0
894 499 0
-895 -502 0
895 502 0
-896 -505 0
896 505 0
-897 -508 0
897 508 0
-898 -511 0
898 511 0
-899 -514 0
899 514 0
-900 -517 0
900 517 0
-901 -520 0
901 520 0
-902 -523 0
902 523 0
-903 -526 0
903 526 0
-904 -529 0
904 529 0
-905 -532 0
905 532 0
-906 -535 0
906 535 0
-907 -538 0
907 538 0
-908 -541 0
908 541 0
-909 -544 0
909 544 0
-910 -547 0
910 547 0
-911 -550 0
911 550 0
-912 -553 0
912 553 0
-913 -556 0
913 556 0
-914 -559 0
914 559 0
-915 -562 0
915 562 0
-916 -564 0
916 564 0
-917 -567 0
917 567 0
-918 -570 0
918 570 0
-919 -573 0
919 573 0
-920 -576 0
920 576 0
-921 -579 0
921 579 0
-922 -582 0
922 582 0
-923 -585 0
923 585 0
-924 -588 0
924 588 0
-925 -591 0
925 591 0
-926 -594 0
926 594 0
-927 -597 0
927 597 0
-928 -600 0
928 600 0
-929 -603 0
929 603 0
-930 -606 0
930 606 0
-931 -609 0
931 609 0
-932 -612 0
932 612 0
-933 -615 0
933 615 0
-934 -618 0
934 618 0
-935 -621 0
935 621 0
-936 -624 0
936 624 0
-937 -627 0
937 627 0
-938 -630 0
938 630 0
-939 -633 0
939 633 0
-940 -636 0
940 636 0
-941 -639 0
941 639 0
-942 -642 0
942 642 0
-943 -644 0
943 644 0
-944 -647 0
944 647 0
-945 -650 0
945 650 0
-946 -653 0
946 653 0
-947 -656 0
947 656 0
-948 -659 0
948 659 0
-949 -662 0
949 662 0
-950 -665 0
950 665 0
-951 -668 0
951 668 0
-952 -671 0
952 671 0
-953 -674 0
953 674 0
-954 -676 0
954 676 0
-955 -679 0
955 679 0
-956 -682 0
956 682 0
-957 -685 0
957 685 0
-958 -687 0
958 687 0
-959 -690 0
959 690 0
-960 -692 0
960 692 0
693 0
